p edge 40 82
e 1 8
e 1 10
e 1 23
e 1 32
e 2 15
e 2 32
e 2 39
e 3 11
e 3 25
e 3 27
e 3 28
e 3 29
e 3 37
e 3 38
e 4 9
e 4 11
e 4 12
e 4 21
e 4 39
e 5 12
e 5 13
e 5 23
e 5 26
e 5 38
e 6 32
e 7 13
e 7 25
e 7 28
e 7 33
e 7 35
e 8 34
e 8 36
e 9 14
e 9 19
e 9 26
e 9 30
e 9 33
e 10 12
e 10 14
e 10 33
e 10 35
e 10 40
e 11 14
e 11 26
e 11 31
e 11 37
e 12 26
e 12 31
e 12 32
e 13 17
e 13 19
e 13 27
e 14 16
e 14 21
e 14 23
e 14 26
e 14 35
e 14 40
e 15 19
e 15 22
e 15 29
e 16 19
e 16 35
e 18 19
e 20 27
e 21 40
e 22 33
e 23 25
e 23 33
e 23 37
e 25 27
e 26 29
e 27 34
e 27 39
e 29 36
e 29 37
e 30 33
e 30 39
e 31 33
e 31 34
e 33 40
e 38 40
